(set-info :smt-lib-version 2.6)
(set-logic QF_NIA)
(set-info :source |
Generated by: Cristina Borralleras, Daniel Larraz, Albert Oliveras, Enric Rodriguez-Carbonell, Albert Rubio
Generated on: 2017-04-27
Generator: VeryMax
Application: Termination proving
Target solver: barcelogic
|)
(set-info :license "https://creativecommons.org/licenses/by/4.0/")
(set-info :category "industrial")
(set-info :status sat)
(declare-fun Nl19i^01 () Int)
(declare-fun Nl19l^01 () Int)
(declare-fun Nl19m^01 () Int)
(declare-fun Nl19n^01 () Int)
(declare-fun Nl19i^02 () Int)
(declare-fun Nl19l^02 () Int)
(declare-fun Nl19m^02 () Int)
(declare-fun Nl19n^02 () Int)
(declare-fun Nl19i^03 () Int)
(declare-fun Nl19l^03 () Int)
(declare-fun Nl19m^03 () Int)
(declare-fun Nl19n^03 () Int)
(declare-fun lam0n0 () Int)
(declare-fun lam0n1 () Int)
(declare-fun lam0n2 () Int)
(declare-fun lam0n3 () Int)
(declare-fun lam0n4 () Int)
(declare-fun lam0n5 () Int)
(declare-fun Nl19CT1 () Int)
(declare-fun Nl19CT2 () Int)
(declare-fun Nl19CT3 () Int)
(declare-fun lam1n0 () Int)
(declare-fun lam1n1 () Int)
(declare-fun lam1n2 () Int)
(declare-fun lam1n3 () Int)
(declare-fun lam1n4 () Int)
(declare-fun lam1n5 () Int)
(declare-fun lam2n0 () Int)
(declare-fun lam2n1 () Int)
(declare-fun lam2n2 () Int)
(declare-fun lam2n3 () Int)
(declare-fun lam2n4 () Int)
(declare-fun lam2n5 () Int)
(declare-fun lam3n0 () Int)
(declare-fun lam3n1 () Int)
(declare-fun lam3n2 () Int)
(declare-fun lam3n3 () Int)
(declare-fun lam3n4 () Int)
(declare-fun lam3n5 () Int)
(declare-fun lam4n0 () Int)
(declare-fun lam4n1 () Int)
(declare-fun lam5n0 () Int)
(declare-fun lam5n1 () Int)
(declare-fun lam6n0 () Int)
(declare-fun lam6n1 () Int)
(declare-fun l^0 () Int)
(declare-fun n^0 () Int)
(declare-fun m^0 () Int)
(declare-fun i^0 () Int)
(declare-fun lam7n0 () Int)
(declare-fun lam7n1 () Int)
(declare-fun lam7n2 () Int)
(declare-fun lam7n3 () Int)
(declare-fun lam7n4 () Int)
(declare-fun lam8n0 () Int)
(declare-fun lam8n1 () Int)
(declare-fun lam8n2 () Int)
(declare-fun lam8n3 () Int)
(declare-fun lam8n4 () Int)
(assert ( and ( <= ( - 1 ) Nl19i^01 ) ( <= Nl19i^01 1 ) ( <= ( - 1 ) Nl19l^01 ) ( <= Nl19l^01 1 ) ( <= ( - 1 ) Nl19m^01 ) ( <= Nl19m^01 1 ) ( <= ( - 1 ) Nl19n^01 ) ( <= Nl19n^01 1 ) ( <= ( - 1 ) Nl19i^02 ) ( <= Nl19i^02 1 ) ( <= ( - 1 ) Nl19l^02 ) ( <= Nl19l^02 1 ) ( <= ( - 1 ) Nl19m^02 ) ( <= Nl19m^02 1 ) ( <= ( - 1 ) Nl19n^02 ) ( <= Nl19n^02 1 ) ( <= ( - 1 ) Nl19i^03 ) ( <= Nl19i^03 1 ) ( <= ( - 1 ) Nl19l^03 ) ( <= Nl19l^03 1 ) ( <= ( - 1 ) Nl19m^03 ) ( <= Nl19m^03 1 ) ( <= ( - 1 ) Nl19n^03 ) ( <= Nl19n^03 1 ) ))
(assert ( or ( and ( >= lam0n0 0 ) ( >= lam0n1 0 ) ( >= lam0n2 0 ) ( >= lam0n3 0 ) ( >= lam0n4 0 ) ( >= lam0n5 0 ) ( > ( + ( * 1 lam0n2 ) ( * Nl19CT1 lam0n3 ) ( * Nl19CT2 lam0n4 ) ( * Nl19CT3 lam0n5 ) ( - 1 ) ) 0 ) ( = ( + ( * 1 lam0n0 ) ( * Nl19i^01 lam0n3 ) ( * Nl19i^02 lam0n4 ) ( * Nl19i^03 lam0n5 ) ) 0 ) ( = ( + ( * 1 lam0n1 ) ( * Nl19l^01 lam0n3 ) ( * Nl19l^02 lam0n4 ) ( * Nl19l^03 lam0n5 ) ) 0 ) ( = ( + ( * 1 lam0n2 ) ( * Nl19m^01 lam0n3 ) ( * Nl19m^02 lam0n4 ) ( * Nl19m^03 lam0n5 ) ) 0 ) ( = ( + ( * ( - 1 ) lam0n0 ) ( * ( - 1 ) lam0n1 ) ( * ( - 1 ) lam0n2 ) ( * Nl19n^01 lam0n3 ) ( * Nl19n^02 lam0n4 ) ( * Nl19n^03 lam0n5 ) ) 0 ) ) ( and ( >= lam1n0 0 ) ( >= lam1n1 0 ) ( >= lam1n2 0 ) ( >= lam1n3 0 ) ( >= lam1n4 0 ) ( >= lam1n5 0 ) ( > ( + ( * 1 lam1n2 ) ( * Nl19CT1 lam1n3 ) ( * Nl19CT2 lam1n4 ) ( * Nl19CT3 lam1n5 ) ( - 1 ( + Nl19CT1 ( * Nl19i^01 1 ) ) ) ) 0 ) ( = ( + ( * 1 lam1n0 ) ( * Nl19i^01 lam1n3 ) ( * Nl19i^02 lam1n4 ) ( * Nl19i^03 lam1n5 ) ( - ( + 0 ( * Nl19i^01 1 ) ) ) ) 0 ) ( = ( + ( * 1 lam1n1 ) ( * Nl19l^01 lam1n3 ) ( * Nl19l^02 lam1n4 ) ( * Nl19l^03 lam1n5 ) ( - ( + 0 Nl19l^01 ) ) ) 0 ) ( = ( + ( * 1 lam1n2 ) ( * Nl19m^01 lam1n3 ) ( * Nl19m^02 lam1n4 ) ( * Nl19m^03 lam1n5 ) ( - ( + 0 Nl19m^01 ) ) ) 0 ) ( = ( + ( * ( - 1 ) lam1n0 ) ( * ( - 1 ) lam1n1 ) ( * ( - 1 ) lam1n2 ) ( * Nl19n^01 lam1n3 ) ( * Nl19n^02 lam1n4 ) ( * Nl19n^03 lam1n5 ) ( - ( + 0 Nl19n^01 ) ) ) 0 ) ) ))
(assert ( or ( and ( >= lam0n0 0 ) ( >= lam0n1 0 ) ( >= lam0n2 0 ) ( >= lam0n3 0 ) ( >= lam0n4 0 ) ( >= lam0n5 0 ) ( > ( + ( * 1 lam0n2 ) ( * Nl19CT1 lam0n3 ) ( * Nl19CT2 lam0n4 ) ( * Nl19CT3 lam0n5 ) ( - 1 ) ) 0 ) ( = ( + ( * 1 lam0n0 ) ( * Nl19i^01 lam0n3 ) ( * Nl19i^02 lam0n4 ) ( * Nl19i^03 lam0n5 ) ) 0 ) ( = ( + ( * 1 lam0n1 ) ( * Nl19l^01 lam0n3 ) ( * Nl19l^02 lam0n4 ) ( * Nl19l^03 lam0n5 ) ) 0 ) ( = ( + ( * 1 lam0n2 ) ( * Nl19m^01 lam0n3 ) ( * Nl19m^02 lam0n4 ) ( * Nl19m^03 lam0n5 ) ) 0 ) ( = ( + ( * ( - 1 ) lam0n0 ) ( * ( - 1 ) lam0n1 ) ( * ( - 1 ) lam0n2 ) ( * Nl19n^01 lam0n3 ) ( * Nl19n^02 lam0n4 ) ( * Nl19n^03 lam0n5 ) ) 0 ) ) ( and ( >= lam2n0 0 ) ( >= lam2n1 0 ) ( >= lam2n2 0 ) ( >= lam2n3 0 ) ( >= lam2n4 0 ) ( >= lam2n5 0 ) ( > ( + ( * 1 lam2n2 ) ( * Nl19CT1 lam2n3 ) ( * Nl19CT2 lam2n4 ) ( * Nl19CT3 lam2n5 ) ( - 1 ( + Nl19CT2 ( * Nl19i^02 1 ) ) ) ) 0 ) ( = ( + ( * 1 lam2n0 ) ( * Nl19i^01 lam2n3 ) ( * Nl19i^02 lam2n4 ) ( * Nl19i^03 lam2n5 ) ( - ( + 0 ( * Nl19i^02 1 ) ) ) ) 0 ) ( = ( + ( * 1 lam2n1 ) ( * Nl19l^01 lam2n3 ) ( * Nl19l^02 lam2n4 ) ( * Nl19l^03 lam2n5 ) ( - ( + 0 Nl19l^02 ) ) ) 0 ) ( = ( + ( * 1 lam2n2 ) ( * Nl19m^01 lam2n3 ) ( * Nl19m^02 lam2n4 ) ( * Nl19m^03 lam2n5 ) ( - ( + 0 Nl19m^02 ) ) ) 0 ) ( = ( + ( * ( - 1 ) lam2n0 ) ( * ( - 1 ) lam2n1 ) ( * ( - 1 ) lam2n2 ) ( * Nl19n^01 lam2n3 ) ( * Nl19n^02 lam2n4 ) ( * Nl19n^03 lam2n5 ) ( - ( + 0 Nl19n^02 ) ) ) 0 ) ) ))
(assert ( or ( and ( >= lam0n0 0 ) ( >= lam0n1 0 ) ( >= lam0n2 0 ) ( >= lam0n3 0 ) ( >= lam0n4 0 ) ( >= lam0n5 0 ) ( > ( + ( * 1 lam0n2 ) ( * Nl19CT1 lam0n3 ) ( * Nl19CT2 lam0n4 ) ( * Nl19CT3 lam0n5 ) ( - 1 ) ) 0 ) ( = ( + ( * 1 lam0n0 ) ( * Nl19i^01 lam0n3 ) ( * Nl19i^02 lam0n4 ) ( * Nl19i^03 lam0n5 ) ) 0 ) ( = ( + ( * 1 lam0n1 ) ( * Nl19l^01 lam0n3 ) ( * Nl19l^02 lam0n4 ) ( * Nl19l^03 lam0n5 ) ) 0 ) ( = ( + ( * 1 lam0n2 ) ( * Nl19m^01 lam0n3 ) ( * Nl19m^02 lam0n4 ) ( * Nl19m^03 lam0n5 ) ) 0 ) ( = ( + ( * ( - 1 ) lam0n0 ) ( * ( - 1 ) lam0n1 ) ( * ( - 1 ) lam0n2 ) ( * Nl19n^01 lam0n3 ) ( * Nl19n^02 lam0n4 ) ( * Nl19n^03 lam0n5 ) ) 0 ) ) ( and ( >= lam3n0 0 ) ( >= lam3n1 0 ) ( >= lam3n2 0 ) ( >= lam3n3 0 ) ( >= lam3n4 0 ) ( >= lam3n5 0 ) ( > ( + ( * 1 lam3n2 ) ( * Nl19CT1 lam3n3 ) ( * Nl19CT2 lam3n4 ) ( * Nl19CT3 lam3n5 ) ( - 1 ( + Nl19CT3 ( * Nl19i^03 1 ) ) ) ) 0 ) ( = ( + ( * 1 lam3n0 ) ( * Nl19i^01 lam3n3 ) ( * Nl19i^02 lam3n4 ) ( * Nl19i^03 lam3n5 ) ( - ( + 0 ( * Nl19i^03 1 ) ) ) ) 0 ) ( = ( + ( * 1 lam3n1 ) ( * Nl19l^01 lam3n3 ) ( * Nl19l^02 lam3n4 ) ( * Nl19l^03 lam3n5 ) ( - ( + 0 Nl19l^03 ) ) ) 0 ) ( = ( + ( * 1 lam3n2 ) ( * Nl19m^01 lam3n3 ) ( * Nl19m^02 lam3n4 ) ( * Nl19m^03 lam3n5 ) ( - ( + 0 Nl19m^03 ) ) ) 0 ) ( = ( + ( * ( - 1 ) lam3n0 ) ( * ( - 1 ) lam3n1 ) ( * ( - 1 ) lam3n2 ) ( * Nl19n^01 lam3n3 ) ( * Nl19n^02 lam3n4 ) ( * Nl19n^03 lam3n5 ) ( - ( + 0 Nl19n^03 ) ) ) 0 ) ) ))
(assert ( and ( <= ( + l^0 ( * ( - 1 ) n^0 ) ) 0 ) ( not ( <= ( + ( * ( - 1 ) m^0 ) n^0 ) 0 ) ) ( <= ( + Nl19CT1 ( * ( + 0 Nl19i^01 ) i^0 ) ( * ( + 0 Nl19l^01 ) l^0 ) ( * ( + 0 Nl19m^01 ) m^0 ) ( * ( + 0 Nl19n^01 ) n^0 ) ) 0 ) ( <= ( + Nl19CT2 ( * ( + 0 Nl19i^02 ) i^0 ) ( * ( + 0 Nl19l^02 ) l^0 ) ( * ( + 0 Nl19m^02 ) m^0 ) ( * ( + 0 Nl19n^02 ) n^0 ) ) 0 ) ( <= ( + Nl19CT3 ( * ( + 0 Nl19i^03 ) i^0 ) ( * ( + 0 Nl19l^03 ) l^0 ) ( * ( + 0 Nl19m^03 ) m^0 ) ( * ( + 0 Nl19n^03 ) n^0 ) ) 0 ) ))
(assert ( or ( or ( and ( >= lam7n0 0 ) ( >= lam7n1 0 ) ( >= lam7n2 0 ) ( >= lam7n3 0 ) ( >= lam7n4 0 ) ( > ( + ( * 1 lam7n1 ) ( * Nl19CT1 lam7n2 ) ( * Nl19CT2 lam7n3 ) ( * Nl19CT3 lam7n4 ) ( - 1 ) ) 0 ) ( = ( + ( * ( - 1 ) lam7n1 ) ( * Nl19i^01 lam7n2 ) ( * Nl19i^02 lam7n3 ) ( * Nl19i^03 lam7n4 ) ) 0 ) ( = ( + ( * 1 lam7n0 ) ( * Nl19l^01 lam7n2 ) ( * Nl19l^02 lam7n3 ) ( * Nl19l^03 lam7n4 ) ) 0 ) ( = ( + ( * Nl19m^01 lam7n2 ) ( * Nl19m^02 lam7n3 ) ( * Nl19m^03 lam7n4 ) ) 0 ) ( = ( + ( * ( - 1 ) lam7n0 ) ( * 1 lam7n1 ) ( * Nl19n^01 lam7n2 ) ( * Nl19n^02 lam7n3 ) ( * Nl19n^03 lam7n4 ) ) 0 ) ) ( and ( >= lam8n0 0 ) ( >= lam8n1 0 ) ( >= lam8n2 0 ) ( >= lam8n3 0 ) ( >= lam8n4 0 ) ( > ( + ( * 1 lam8n1 ) ( * Nl19CT1 lam8n2 ) ( * Nl19CT2 lam8n3 ) ( * Nl19CT3 lam8n4 ) 1 ) 0 ) ( = ( + ( * ( - 1 ) lam8n1 ) ( * Nl19i^01 lam8n2 ) ( * Nl19i^02 lam8n3 ) ( * Nl19i^03 lam8n4 ) ) 0 ) ( = ( + ( * 1 lam8n0 ) ( * Nl19l^01 lam8n2 ) ( * Nl19l^02 lam8n3 ) ( * Nl19l^03 lam8n4 ) ) 0 ) ( = ( + ( * Nl19m^01 lam8n2 ) ( * Nl19m^02 lam8n3 ) ( * Nl19m^03 lam8n4 ) 1 ) 0 ) ( = ( + ( * ( - 1 ) lam8n0 ) ( * 1 lam8n1 ) ( * Nl19n^01 lam8n2 ) ( * Nl19n^02 lam8n3 ) ( * Nl19n^03 lam8n4 ) ( - 1 ) ) 0 ) ) ) ( and ( and ( <= ( + l^0 ( * ( - 1 ) n^0 ) ) 0 ) ( not ( <= ( + ( * ( - 1 ) m^0 ) n^0 ) 0 ) ) ( <= ( + Nl19CT1 ( * ( + 0 Nl19i^01 ) i^0 ) ( * ( + 0 Nl19l^01 ) l^0 ) ( * ( + 0 Nl19m^01 ) m^0 ) ( * ( + 0 Nl19n^01 ) n^0 ) ) 0 ) ( <= ( + Nl19CT2 ( * ( + 0 Nl19i^02 ) i^0 ) ( * ( + 0 Nl19l^02 ) l^0 ) ( * ( + 0 Nl19m^02 ) m^0 ) ( * ( + 0 Nl19n^02 ) n^0 ) ) 0 ) ( <= ( + Nl19CT3 ( * ( + 0 Nl19i^03 ) i^0 ) ( * ( + 0 Nl19l^03 ) l^0 ) ( * ( + 0 Nl19m^03 ) m^0 ) ( * ( + 0 Nl19n^03 ) n^0 ) ) 0 ) ) ( and ( >= lam0n0 0 ) ( >= lam0n1 0 ) ( >= lam0n2 0 ) ( >= lam0n3 0 ) ( >= lam0n4 0 ) ( >= lam0n5 0 ) ( > ( + ( * 1 lam0n2 ) ( * Nl19CT1 lam0n3 ) ( * Nl19CT2 lam0n4 ) ( * Nl19CT3 lam0n5 ) ( - 1 ) ) 0 ) ( = ( + ( * 1 lam0n0 ) ( * Nl19i^01 lam0n3 ) ( * Nl19i^02 lam0n4 ) ( * Nl19i^03 lam0n5 ) ) 0 ) ( = ( + ( * 1 lam0n1 ) ( * Nl19l^01 lam0n3 ) ( * Nl19l^02 lam0n4 ) ( * Nl19l^03 lam0n5 ) ) 0 ) ( = ( + ( * 1 lam0n2 ) ( * Nl19m^01 lam0n3 ) ( * Nl19m^02 lam0n4 ) ( * Nl19m^03 lam0n5 ) ) 0 ) ( = ( + ( * ( - 1 ) lam0n0 ) ( * ( - 1 ) lam0n1 ) ( * ( - 1 ) lam0n2 ) ( * Nl19n^01 lam0n3 ) ( * Nl19n^02 lam0n4 ) ( * Nl19n^03 lam0n5 ) ) 0 ) ) ) ))
(check-sat)
(exit)
